-1,0,0
1,1,2
3,3,3
1,4,10
2,11,15
4,16,21
-1,22,25
5,26,26
6,27,28
5,29,36
16,37,37
17,38,42
5,43,43
10,44,49
13,50,50
7,51,53
14,54,62
12,63,72
11,73,76
8,77,85
15,86,89
20,90,93
18,94,101
9,102,110
19,111,118
-1,119,119
21,120,121
23,122,126
21,127,131
28,132,137
35,138,141
39,142,146
24,147,156
25,157,161
31,162,164
37,165,167
27,168,175
33,176,181
22,182,183
32,184,184
34,185,192
36,193,194
40,195,195
29,196,197
26,198,201
30,202,202
38,203,207
-1,208,219